p td 33 99
6 1
6 5
10 9
10 7
11 2
11 1
11 6
12 6
12 9
13 9
13 6
14 12
14 10
14 4
14 2
14 11
15 8
15 3
15 14
15 1
15 2
15 10
16 7
16 15
16 9
17 5
17 14
17 2
17 15
17 13
17 8
18 3
19 10
19 17
19 13
19 5
19 8
21 1
21 6
21 8
22 17
22 2
22 16
22 3
23 19
23 15
23 21
23 5
23 18
23 20
24 20
24 3
24 16
24 15
24 11
25 1
25 13
25 15
25 4
25 12
25 11
25 3
26 2
26 15
26 17
27 23
27 22
27 21
27 24
27 13
28 1
28 17
28 11
28 18
28 16
28 12
28 2
28 6
29 9
30 23
30 27
31 25
31 14
31 13
31 20
31 5
32 3
32 22
32 27
32 1
33 29
33 24
33 21
33 2
33 15
33 14
33 31
33 18
33 17
